20 10
49 48 55 26 44 54 58 42 45 42
44 38 28 42 33 26 44 50 35 59
15 28 26 20 10 16 31 10 25 8
53 51 43 59 46 52 67 67 45 34
78 71 56 71 84 61 47 50 51 83
42 42 42 20 25 68 50 51 33 49
67 76 72 64 49 81 84 89 71 66
41 63 55 64 50 51 73 78 50 50
30 31 54 38 37 43 26 35 38 36
78 82 82 78 84 81 70 87 73 74
78 58 86 84 66 67 68 38 77 72
45 34 21 22 41 42 58 56 32 51
59 60 52 57 45 54 43 49 30 40
34 38 41 21 46 50 31 43 45 30
38 54 68 49 32 68 48 51 45 56
68 73 80 70 56 64 73 66 58 78
47 40 57 25 41 47 34 40 71 43
21 20 30 11 36 42 34 16 27 28
19 13 26 19 17 37 19 44 20 27
9 21 18 28 18 9 24 30 9 18
